instances/tuning-use-case-3/ISA807RandomOvenSchedulingInstance-n25-k2-a2--0505-22.32.27.dat
LengthSchedulingHorizon=898;
nAttributes=2;
SetupCosts=[[0, 0], [3, 3], [3, 3]];
SetupTimes=[[0, 0], [2, 2], [2, 2]];
nMachines=2;
MinCap=[0, 0];
MaxCap=[20, 20];

initState=[1, 2];
nShifts=1;
ShiftStartTimes = [[558], [655]];
ShiftEndTimes = [[841], [856]];
nJobs=25;
EligibleMachines = [{1, 2}, {1, 2}, {1, 2}, {1, 2}, {1}, {2}, {1, 2}, {1}, {1, 2}, {2}, {2}, {1, 2}, {1, 2}, {1, 2}, {1}, {1, 2}, {2}, {1, 2}, {1, 2}, {2}, {1, 2}, {1, 2}, {1}, {1}, {2}];
EarliestStart=[33, 65, 71, 72, 6, 13, 15, 6, 2, 33, 39, 42, 50, 61, 35, 70, 29, 71, 37, 63, 38, 21, 68, 76, 78];
LatestEnd=[44, 76, 72, 75, 25, 20, 24, 21, 11, 48, 44, 48, 55, 62, 46, 79, 36, 82, 50, 77, 46, 24, 80, 85, 88];
MinTime=[10, 8, 1, 2, 10, 6, 5, 8, 7, 9, 5, 5, 3, 1, 6, 7, 4, 9, 8, 10, 5, 2, 9, 5, 10];
MaxTime=[10, 10, 1, 5, 10, 7, 8, 8, 8, 9, 7, 7, 3, 7, 7, 8, 7, 10, 9, 10, 5, 7, 10, 6, 10];
JobSize=[8, 9, 19, 20, 8, 20, 12, 8, 12, 14, 7, 12, 14, 19, 19, 1, 12, 13, 17, 11, 10, 7, 10, 18, 5];
Attribute=[2, 2, 1, 1, 1, 1, 1, 2, 1, 2, 2, 2, 2, 2, 1, 1, 1, 2, 2, 2, 2, 2, 1, 2, 1];

upper_bound_integer_objective=5250;
mult_factor_total_runtime=12;
mult_factor_finished_toolate=84;
mult_factor_total_setuptimes=0;
mult_factor_total_setupcosts=14;
running_time_bound=155;
min_duration=1;
max_duration=10;
max_setup_time=2;
max_setup_cost=3;
